15 40
25
3 11 9 11
3 13 12 11
2 9 7 13
2 7 7 0
3 9 0 31
3 7 0 24
2 11 9 0
2 13 7 27
4 11 11 0
4 13 3 27
5 3 10 24
2 11 5 11
2 2 10 22
3 11 4 0
3 2 5 22
4 5 0 6
4 6 0 0
2 12 9 28
2 1 9 27
5 3 3 24
5 13 0 11
4 12 11 28
4 1 11 27
2 5 8 22
2 6 7 7
